NAME          
ROWS
 N  OBJ
 L  c1
 L  c2
COLUMNS
    MARKER    'MARKER'                 'INTORG'
    x[1]      c1        209
    x[1]      c2        728
    x[1]      OBJ       -396
    x[2]      c1        197
    x[2]      c2        337
    x[2]      OBJ       -499
    x[3]      c1        894
    x[3]      c2        419
    x[3]      OBJ       -663
    x[4]      c1        10
    x[4]      c2        914
    x[4]      OBJ       -700
    x[5]      c1        572
    x[5]      c2        951
    x[5]      OBJ       -787
    x[6]      c1        589
    x[6]      c2        415
    x[6]      OBJ       -520
    x[7]      c1        962
    x[7]      c2        730
    x[7]      OBJ       -76
    x[8]      c1        489
    x[8]      c2        323
    x[8]      OBJ       -153
    x[9]      c1        385
    x[9]      c2        342
    x[9]      OBJ       -443
    x[10]     c1        614
    x[10]     c2        3
    x[10]     OBJ       -41
    x[11]     c1        208
    x[11]     c2        847
    x[11]     OBJ       -631
    x[12]     c1        127
    x[12]     c2        105
    x[12]     OBJ       -209
    x[13]     c1        935
    x[13]     c2        595
    x[13]     OBJ       -750
    x[14]     c1        559
    x[14]     c2        840
    x[14]     OBJ       -870
    x[15]     c1        676
    x[15]     c2        913
    x[15]     OBJ       -938
RHS
    rhs       c1        3713
    rhs       c2        4231
RANGES
BOUNDS
 LO bounds    x[1]      0
 PL bounds    x[1]
 LO bounds    x[2]      0
 PL bounds    x[2]
 LO bounds    x[3]      0
 PL bounds    x[3]
 LO bounds    x[4]      0
 PL bounds    x[4]
 LO bounds    x[5]      0
 PL bounds    x[5]
 LO bounds    x[6]      0
 PL bounds    x[6]
 LO bounds    x[7]      0
 PL bounds    x[7]
 LO bounds    x[8]      0
 PL bounds    x[8]
 LO bounds    x[9]      0
 PL bounds    x[9]
 LO bounds    x[10]     0
 PL bounds    x[10]
 LO bounds    x[11]     0
 PL bounds    x[11]
 LO bounds    x[12]     0
 PL bounds    x[12]
 LO bounds    x[13]     0
 PL bounds    x[13]
 LO bounds    x[14]     0
 PL bounds    x[14]
 LO bounds    x[15]     0
 PL bounds    x[15]
ENDATA
